
Gurobi 11.0.3 (linux64) logging started Mon 18 Nov 2024 07:24:38 PM CST

Set parameter LogFile to value "/home/dlcole3/graph_abstraction/hierarchical_graphs/git_storage/CS1/HP_low_reserves/gurobi_logs/serial/logfile_ST3_4.log"

Gurobi 11.0.3 (linux64) logging started Mon 18 Nov 2024 07:27:41 PM CST

Set parameter LogFile to value "/home/dlcole3/graph_abstraction/hierarchical_graphs/git_storage/CS1/HP_low_reserves/gurobi_logs/serial/logfile_ST3_4.log"
Gurobi Optimizer version 11.0.3 build v11.0.3rc0 (linux64 - "Ubuntu 18.04.3 LTS")

CPU model: Intel(R) Xeon(R) CPU E5-2698 v4 @ 2.20GHz, instruction set [SSE2|AVX|AVX2]
Thread count: 40 physical cores, 80 logical processors, using up to 20 threads

Optimize a model with 29168 rows, 50688 columns and 136175 nonzeros
Model fingerprint: 0x94d0c455
Variable types: 46944 continuous, 3744 integer (3744 binary)
Coefficient statistics:
  Matrix range     [6e-01, 2e+04]
  Objective range  [2e+00, 2e+04]
  Bounds range     [5e-02, 2e+05]
  RHS range        [5e-02, 7e+03]
Presolve removed 14474 rows and 38738 columns
Presolve time: 0.34s
Presolved: 14694 rows, 11950 columns, 61815 nonzeros
Variable types: 9107 continuous, 2843 integer (2843 binary)
Found heuristic solution: objective 235740.67255
Found heuristic solution: objective 176914.46874

Root relaxation: objective 3.484136e+04, 8762 iterations, 0.42 seconds (0.32 work units)

    Nodes    |    Current Node    |     Objective Bounds      |     Work
 Expl Unexpl |  Obj  Depth IntInf | Incumbent    BestBd   Gap | It/Node Time

     0     0 34841.3629    0   12 176914.469 34841.3629  80.3%     -    1s
H    0     0                    50104.826032 34841.3629  30.5%     -    1s
     0     0 34841.3629    0   12 50104.8260 34841.3629  30.5%     -    1s
     0     2 34841.3629    0   12 50104.8260 34841.3629  30.5%     -    2s
H   32    52                    37147.610660 35039.0861  5.68%  84.2    2s
H   33    52                    36737.940031 35039.0861  4.62%  83.8    2s
H   42    52                    36737.915101 35039.0861  4.62%  70.2    2s
H  200   144                    36428.510857 35039.0861  3.81%  23.6    2s
H  367   285                    35506.338972 35039.0861  1.32%  15.4    2s
H  519   227                    35505.999506 35056.0227  1.27%  14.2    3s
H  552   239                    35503.700501 35056.0227  1.26%  14.3    3s
H 1142   448                    35386.948868 35056.0227  0.94%  11.0    3s
* 1440   481              29    35385.807749 35056.5785  0.93%  11.4    3s
H 1759   528                    35385.807743 35056.5785  0.93%  12.0    4s
H 1769   528                    35385.807730 35056.5785  0.93%  12.0    4s
H 1770   528                    35365.418572 35056.5785  0.87%  12.0    4s
H 1848   538                    35365.301004 35056.5785  0.87%  12.0    4s
H 1940   539                    35364.961536 35056.5785  0.87%  12.1    4s
H 1941   546                    35364.961501 35056.5785  0.87%  12.1    7s
H 1943   546                    35362.516430 35056.5785  0.87%  12.1    7s
H 1955   546                    35362.516382 35056.5785  0.87%  12.1    7s
H 1962   546                    35357.914625 35056.5785  0.85%  12.1    7s
H 1966   546                    35348.467738 35056.5785  0.83%  12.2    7s
H 3169   170                    35348.467732 35068.9504  0.79%  11.4    9s
H 3183   110                    35348.467366 35068.9504  0.79%  11.3    9s

Explored 3469 nodes (46548 simplex iterations) in 9.71 seconds (7.91 work units)
Thread count was 20 (of 80 available processors)

Solution count 10: 35348.5 35348.5 35348.5 ... 36428.5

Optimal solution found (tolerance 3.00e-03)
Best objective 3.534846736642e+04, best bound 3.534846736628e+04, gap 0.0000%

User-callback calls 9755, time in user-callback 0.00 sec
